142183
7,96,54,28,29,4,51,64,30,97,12,87,68,80,41,18,49,67,98,99,71,44,24,85,45,76,5,39,55,19,15,63,89,16,20,21,61,1,72,47,84,35,70,53,94,66,40,10,103,37,100,104,59,95,77,2,93,69,17,31,62,6,48,36,38,83,52,32,81,50,34,74,102,46,60,3,14,90,78,42,23,57,0,86,43,65,58,9,26,27,75,88,79,73,101,13,25,33,82,56,22,92,11,91,8,105
